sing20220825.12
TTAA  75111 48698
99005 26433 21004 00077 26631 13006 92762 22207 15019
85488 18631 16525 70126 10037 16010 50585 05108 17506
40757 14714 12514 30969 29132 14006 25096 39538 10016
20245 52747 06519 15424 69156 05047 10658 78156 08041
88118 78750 05080
77118 05080 42747=
TTCC  75117 48698
70866 69958 11033
88999
77999=
TTDD  7511/ 48698
11827 73757 22789 70359 33700 69958 44629 72757
21212 11915 07547 22793 08527 33706 11035 44629 10541=
